NAME : local_4
TYPE : ATSP
DIMENSION : 22
EDGE_WEIGHT_TYPE : EXPLICIT
EDGE_WEIGHT_FORMAT : FULL_MATRIX
EDGE_WEIGHT_SECTION
0 710 10000000 10000000 637 10000000 10000000 387 574 10000000 10000000 10000000 409 10000000 10000000 10000000 920 10000000 339 10000000 10000000 10000000 
0 0 10000000 10000000 786 10000000 10000000 624 871 10000000 10000000 10000000 367 10000000 10000000 10000000 341 722 690 812 10000000 975 
0 10000000 0 366 718 10000000 10000000 847 633 10000000 216 900 10000000 10000000 10000000 550 10000000 10000000 10000000 10000000 10000000 10000000 
0 10000000 366 0 1003 10000000 10000000 10000000 973 791 398 738 10000000 10000000 950 336 10000000 10000000 10000000 10000000 1035 10000000 
0 786 718 1023 0 10000000 10000000 264 183 10000000 876 10000000 575 10000000 10000000 10000000 731 10000000 914 10000000 10000000 10000000 
0 10000000 10000000 10000000 10000000 0 249 10000000 10000000 10000000 10000000 405 10000000 770 309 969 10000000 10000000 10000000 987 604 807 
0 10000000 10000000 10000000 10000000 249 0 10000000 10000000 981 10000000 556 10000000 596 294 10000000 10000000 10000000 10000000 816 444 634 
0 624 847 10000000 264 10000000 10000000 0 282 10000000 962 10000000 352 10000000 10000000 10000000 685 10000000 651 10000000 10000000 10000000 
0 871 633 986 183 10000000 10000000 282 0 10000000 759 10000000 634 10000000 10000000 10000000 869 10000000 890 10000000 10000000 10000000 
0 10000000 10000000 791 10000000 10000000 981 10000000 10000000 0 10000000 867 10000000 497 758 843 10000000 993 10000000 837 593 10000000 
0 10000000 216 398 876 10000000 10000000 962 759 10000000 0 770 10000000 10000000 10000000 428 10000000 10000000 10000000 10000000 10000000 10000000 
0 10000000 900 738 10000000 405 556 10000000 10000000 867 770 0 10000000 780 322 579 10000000 10000000 10000000 10000000 647 10000000 
0 367 10000000 10000000 575 10000000 10000000 352 634 10000000 10000000 10000000 0 10000000 10000000 10000000 550 10000000 460 10000000 10000000 10000000 
0 10000000 10000000 10000000 10000000 770 596 10000000 10000000 497 10000000 780 10000000 0 508 10000000 10000000 870 10000000 523 187 872 
0 10000000 10000000 938 10000000 309 294 10000000 10000000 758 10000000 322 10000000 508 0 811 10000000 10000000 10000000 828 362 874 
0 10000000 550 336 10000000 969 10000000 10000000 10000000 843 428 579 10000000 10000000 811 0 10000000 10000000 10000000 10000000 979 10000000 
0 341 10000000 10000000 731 10000000 10000000 685 869 10000000 10000000 10000000 550 10000000 10000000 10000000 0 600 976 900 10000000 10000000 
0 722 10000000 10000000 10000000 10000000 10000000 10000000 10000000 993 10000000 10000000 10000000 870 10000000 10000000 600 0 10000000 428 913 10000000 
0 690 10000000 10000000 914 10000000 10000000 651 890 10000000 10000000 10000000 460 10000000 10000000 10000000 976 10000000 0 10000000 10000000 10000000 
0 812 10000000 10000000 10000000 987 816 10000000 10000000 837 10000000 10000000 10000000 523 828 10000000 857 428 10000000 0 508 708 
0 10000000 10000000 1012 10000000 604 444 10000000 10000000 593 10000000 647 10000000 187 362 979 10000000 937 10000000 508 0 765 
0 10000000 10000000 10000000 10000000 10000000 10000000 10000000 10000000 10000000 10000000 10000000 10000000 10000000 10000000 10000000 10000000 10000000 10000000 10000000 10000000 0 
EOF